c FILE: i160-202

c SOURCE: From steinlib

c DESCRIPTION: Steinlib instance with 160 nodes and 240 edges.

p edge 160 240
e 1 25
e 1 87
e 1 109
e 1 141
e 1 143
e 1 149
e 1 153
e 2 157
e 3 69
e 3 96
e 4 30
e 4 80
e 4 150
e 5 83
e 5 157
e 6 29
e 6 56
e 6 144
e 7 79
e 7 102
e 7 126
e 8 107
e 8 132
e 8 153
e 9 52
e 9 60
e 9 62
e 9 98
e 9 137
e 9 140
e 10 75
e 10 94
e 11 28
e 11 60
e 11 87
e 11 91
e 11 102
e 11 117
e 11 123
e 11 155
e 12 66
e 13 30
e 13 70
e 13 71
e 14 157
e 15 18
e 15 68
e 15 105
e 15 110
e 16 120
e 16 147
e 17 66
e 17 93
e 18 26
e 18 111
e 18 116
e 18 149
e 19 75
e 19 85
e 20 42
e 21 124
e 22 153
e 23 69
e 23 79
e 24 36
e 24 102
e 24 120
e 25 58
e 25 73
e 25 115
e 26 120
e 27 140
e 28 69
e 28 104
e 28 120
e 29 44
e 31 92
e 31 104
e 32 33
e 32 68
e 33 89
e 33 143
e 34 61
e 34 78
e 34 103
e 34 113
e 35 70
e 35 122
e 36 46
e 36 148
e 36 153
e 37 64
e 38 41
e 38 114
e 39 55
e 39 121
e 40 104
e 40 144
e 41 82
e 42 67
e 42 74
e 43 128
e 43 153
e 43 155
e 44 109
e 44 114
e 44 126
e 45 89
e 46 67
e 46 94
e 47 67
e 47 129
e 48 77
e 48 92
e 48 96
e 49 56
e 49 72
e 49 107
e 49 146
e 50 55
e 51 76
e 51 114
e 52 83
e 53 116
e 53 122
e 53 135
e 53 149
e 54 81
e 54 140
e 55 70
e 55 83
e 55 84
e 55 86
e 56 98
e 56 101
e 56 107
e 56 131
e 57 80
e 58 122
e 59 92
e 59 95
e 60 85
e 60 109
e 61 96
e 61 138
e 62 74
e 63 74
e 64 75
e 65 160
e 66 70
e 66 99
e 67 150
e 67 155
e 68 90
e 68 123
e 68 138
e 69 119
e 69 129
e 70 136
e 70 148
e 71 73
e 71 132
e 72 132
e 74 132
e 74 152
e 74 155
e 75 144
e 75 148
e 77 84
e 77 128
e 78 80
e 78 105
e 79 143
e 81 89
e 81 106
e 82 153
e 83 88
e 83 92
e 84 118
e 85 105
e 85 106
e 85 139
e 87 121
e 87 130
e 87 131
e 87 134
e 88 101
e 88 125
e 88 154
e 90 92
e 90 133
e 92 96
e 92 153
e 93 125
e 94 107
e 94 118
e 94 119
e 94 141
e 94 147
e 97 140
e 99 150
e 100 107
e 100 125
e 101 119
e 101 142
e 101 159
e 102 147
e 103 112
e 105 154
e 106 149
e 108 120
e 108 157
e 109 114
e 112 124
e 112 148
e 114 123
e 115 127
e 116 135
e 122 130
e 122 134
e 122 156
e 123 130
e 123 138
e 124 143
e 126 151
e 126 154
e 127 141
e 127 156
e 128 131
e 132 145
e 137 157
e 140 148
e 141 160
e 143 148
e 144 152
e 144 158
e 146 147
e 148 155
e 149 155
e 151 157
